Welcome to the CBC MILP Solver 
Version: 2.10.12 
Build Date: Aug 20 2024 

command line - /opt/homebrew/bin/cbc computational_data/lp/ER_n20_p020_s7.lp seconds 10.0 solve solu computational_data/solutions/ER_n20_p020_s7.sol (default strategy 1)
seconds was changed from 1e+100 to 10
Continuous objective value is 6.66667 - 0.00 seconds
Cgl0003I 0 fixed, 0 tightened bounds, 27 strengthened rows, 0 substitutions
Cgl0003I 0 fixed, 0 tightened bounds, 24 strengthened rows, 0 substitutions
Cgl0003I 0 fixed, 0 tightened bounds, 17 strengthened rows, 0 substitutions
Cgl0004I processed model has 124 rows, 40 columns (40 integer (40 of which binary)) and 508 elements
Cutoff increment increased from 1e-05 to 0.9999
Cbc0038I Initial state - 16 integers unsatisfied sum - 6.33333
Cbc0038I Pass   1: suminf.    5.83333 (16) obj. 6.83333 iterations 15
Cbc0038I Pass   2: suminf.    7.50000 (15) obj. 8.5 iterations 14
Cbc0038I Pass   3: suminf.    5.68750 (24) obj. 9.6875 iterations 26
Cbc0038I Pass   4: suminf.    3.00000 (9) obj. 10.3333 iterations 24
Cbc0038I Pass   5: suminf.    2.00000 (4) obj. 11 iterations 10
Cbc0038I Pass   6: suminf.    2.00000 (4) obj. 11 iterations 3
Cbc0038I Pass   7: suminf.    0.00000 (0) obj. 12 iterations 13
Cbc0038I Solution found of 12
Cbc0038I Rounding solution of 11 is better than previous of 12

Cbc0038I Before mini branch and bound, 7 integers at bound fixed and 0 continuous
Cbc0038I Full problem 124 rows 40 columns, reduced to 111 rows 33 columns
Cbc0038I Mini branch and bound improved solution from 11 to 9 (0.01 seconds)
Cbc0038I Round again with cutoff of 7.86676
Cbc0038I Pass   8: suminf.    5.83333 (16) obj. 6.83333 iterations 0
Cbc0038I Pass   9: suminf.    6.00000 (12) obj. 7 iterations 21
Cbc0038I Pass  10: suminf.    6.46703 (20) obj. 7.86676 iterations 28
Cbc0038I Pass  11: suminf.    5.11111 (17) obj. 7.44444 iterations 18
Cbc0038I Pass  12: suminf.    5.00000 (17) obj. 7.83333 iterations 10
Cbc0038I Pass  13: suminf.    5.86676 (12) obj. 7.86676 iterations 28
Cbc0038I Pass  14: suminf.    4.82609 (17) obj. 7.17391 iterations 26
Cbc0038I Pass  15: suminf.    4.18750 (18) obj. 7.8125 iterations 17
Cbc0038I Pass  16: suminf.    5.86676 (12) obj. 7.86676 iterations 17
Cbc0038I Pass  17: suminf.    5.00000 (10) obj. 7 iterations 15
Cbc0038I Pass  18: suminf.    3.26649 (12) obj. 7.86676 iterations 16
Cbc0038I Pass  19: suminf.    3.26649 (12) obj. 7.86676 iterations 8
Cbc0038I Pass  20: suminf.    4.49314 (17) obj. 7.86676 iterations 24
Cbc0038I Pass  21: suminf.    4.03984 (17) obj. 7.86676 iterations 1
Cbc0038I Pass  22: suminf.    5.73351 (18) obj. 7.86676 iterations 24
Cbc0038I Pass  23: suminf.    4.13324 (14) obj. 7.86676 iterations 15
Cbc0038I Pass  24: suminf.    4.39973 (14) obj. 7.86676 iterations 28
Cbc0038I Pass  25: suminf.    4.03582 (16) obj. 7.86676 iterations 11
Cbc0038I Pass  26: suminf.    3.49314 (14) obj. 7.86676 iterations 7
Cbc0038I Pass  27: suminf.    3.26649 (12) obj. 7.86676 iterations 6
Cbc0038I Pass  28: suminf.    5.44429 (17) obj. 7.86676 iterations 17
Cbc0038I Pass  29: suminf.    5.13324 (16) obj. 7.86676 iterations 5
Cbc0038I Pass  30: suminf.    3.69986 (12) obj. 7.86676 iterations 19
Cbc0038I Pass  31: suminf.    3.49314 (14) obj. 7.86676 iterations 12
Cbc0038I Pass  32: suminf.    3.26649 (12) obj. 7.86676 iterations 6
Cbc0038I Pass  33: suminf.    5.44429 (17) obj. 7.86676 iterations 22
Cbc0038I Pass  34: suminf.    5.13324 (16) obj. 7.86676 iterations 6
Cbc0038I Pass  35: suminf.    3.69986 (12) obj. 7.86676 iterations 20
Cbc0038I Pass  36: suminf.    3.49314 (14) obj. 7.86676 iterations 12
Cbc0038I Pass  37: suminf.    3.26649 (12) obj. 7.86676 iterations 9
Cbc0038I No solution found this major pass
Cbc0038I Before mini branch and bound, 5 integers at bound fixed and 0 continuous
Cbc0038I Full problem 124 rows 40 columns, reduced to 116 rows 35 columns
Cbc0038I Mini branch and bound did not improve solution (0.05 seconds)
Cbc0038I After 0.05 seconds - Feasibility pump exiting with objective of 9 - took 0.05 seconds
Cbc0012I Integer solution of 9 found by feasibility pump after 0 iterations and 0 nodes (0.05 seconds)
Cbc0038I Full problem 124 rows 40 columns, reduced to 24 rows 8 columns
Cbc0031I 5 added rows had average density of 19.8
Cbc0013I At root node, 5 cuts changed objective from 6.6666667 to 7.9999951 in 100 passes
Cbc0014I Cut generator 0 (Probing) - 0 row cuts average 0.0 elements, 0 column cuts (0 active)  in 0.010 seconds - new frequency is -100
Cbc0014I Cut generator 1 (Gomory) - 816 row cuts average 39.0 elements, 0 column cuts (0 active)  in 0.010 seconds - new frequency is 1
Cbc0014I Cut generator 2 (Knapsack) - 0 row cuts average 0.0 elements, 0 column cuts (0 active)  in 0.005 seconds - new frequency is -100
Cbc0014I Cut generator 3 (Clique) - 0 row cuts average 0.0 elements, 0 column cuts (0 active)  in 0.002 seconds - new frequency is -100
Cbc0014I Cut generator 4 (MixedIntegerRounding2) - 3 row cuts average 40.0 elements, 0 column cuts (0 active)  in 0.008 seconds - new frequency is -100
Cbc0014I Cut generator 5 (FlowCover) - 0 row cuts average 0.0 elements, 0 column cuts (0 active)  in 0.001 seconds - new frequency is -100
Cbc0014I Cut generator 6 (TwoMirCuts) - 11 row cuts average 38.5 elements, 0 column cuts (0 active)  in 0.006 seconds - new frequency is -100
Cbc0010I After 0 nodes, 1 on tree, 9 best solution, best possible 7.9999951 (0.13 seconds)
Cbc0001I Search completed - best objective 9, took 2393 iterations and 4 nodes (0.14 seconds)
Cbc0032I Strong branching done 80 times (1520 iterations), fathomed 1 nodes and fixed 4 variables
Cbc0035I Maximum depth 1, 0 variables fixed on reduced cost
Cuts at root node changed objective from 6.66667 to 8
Probing was tried 100 times and created 0 cuts of which 0 were active after adding rounds of cuts (0.010 seconds)
Gomory was tried 110 times and created 892 cuts of which 0 were active after adding rounds of cuts (0.011 seconds)
Knapsack was tried 100 times and created 0 cuts of which 0 were active after adding rounds of cuts (0.005 seconds)
Clique was tried 100 times and created 0 cuts of which 0 were active after adding rounds of cuts (0.002 seconds)
MixedIntegerRounding2 was tried 100 times and created 3 cuts of which 0 were active after adding rounds of cuts (0.008 seconds)
FlowCover was tried 100 times and created 0 cuts of which 0 were active after adding rounds of cuts (0.001 seconds)
TwoMirCuts was tried 100 times and created 11 cuts of which 0 were active after adding rounds of cuts (0.006 seconds)
ZeroHalf was tried 1 times and created 0 cuts of which 0 were active after adding rounds of cuts (0.000 seconds)

Result - Optimal solution found

Objective value:                9.00000000
Enumerated nodes:               4
Total iterations:               2393
Time (CPU seconds):             0.15
Time (Wallclock seconds):       0.15

Total time (CPU seconds):       0.15   (Wallclock seconds):       0.15

